letting n =  10
letting blocks =  [[1, 1], [1, 4], [1, 8], [1, 9], [1, 10], [2, 1], [2, 2], [2, 9], [3, 1], [3, 2], [3, 4], [3, 6], [3, 8], [3, 9], [4, 7], [4, 10], [5, 1], [5, 3], [5, 6], [5, 9], [6, 1], [6, 3], [6, 5], [6, 10], [7, 3], [7, 4], [7, 6], [7, 7], [7, 10], [8, 2], [8, 8], [8, 9], [9, 2], [9, 3], [9, 7], [9, 10], [10, 2], [10, 6]]
